File : Instances/p26
Used 88s
10781

1 0 1 0 0 1 0 0 0 0 0 1 0 0 1 0 0 1 0 0 1 0 0 0 1 0 0 0 0 0 
20 11 20 2 20 5 2 24 14 17 24 20 20 20 0 14 14 17 5 11 2 0 5 0 5 20 2 24 5 24 5 11 20 11 20 20 24 24 0 14 0 14 24 14 24 14 0 20 11 14 5 14 14 5 20 20 17 11 0 14 0 5 20 11 11 11 24 0 24 24 20 20 11 0 24 20 24 20 14 24 20 0 20 17 17 17 17 0 20 5 2 24 17 11 0 24 2 0 11 20 20 17 17 11 2 5 0 11 14 14 14 14 2 11 11 11 24 24 24 24 5 14 11 20 20 0 5 24 0 5 0 11 24 5 14 14 0 5 20 17 0 20 20 14 14 11 11 5 2 5 
